<number of tasks>
50

<cycle time>
1000

<order strength>
0.596


<task times>
1 107
2 69
3 164
4 425
5 591
6 296
7 456
8 67
9 100
10 556
11 44
12 312
13 93
14 539
15 91
16 116
17 370
18 536
19 21
20 451
21 338
22 91
23 56
24 55
25 568
26 375
27 55
28 214
29 79
30 209
31 310
32 116
33 195
34 111
35 228
36 343
37 332
38 468
39 189
40 273
41 198
42 495
43 476
44 284
45 219
46 231
47 66
48 89
49 21
50 394

<precedence relations>
1,4
2,5
2,6
2,7
3,6
3,7
4,9
5,10
6,8
6,11
6,12
7,11
7,12
8,13
9,16
10,15
11,14
11,16
12,16
13,17
14,18
15,19
16,20
16,21
17,22
18,23
19,24
20,24
20,25
21,24
21,25
22,29
23,27
24,26
24,28
24,29
24,30
25,28
25,29
25,30
26,32
27,34
28,31
28,34
28,35
28,45
29,34
29,35
30,33
30,34
30,35
31,36
32,37
33,38
34,39
34,40
35,40
35,41
35,50
36,44
37,42
38,45
39,43
40,44
40,46
41,49
42,48
43,47
44,49
45,50
46,48

<end>
